WARNING: for repeatability, setting FPU to use double precision
============================[ Problem Statistics ]=============================
|                                                                             |
|  Number of variables:            50                                         |
|  Number of clauses:             218                                         |
|  Parse time:                   0.00 s                                       |
|                                                                             |
============================[ Search Statistics ]==============================
| Conflicts |          ORIGINAL         |          LEARNT          | Progress |
|           |    Vars  Clauses Literals |    Limit  Clauses Lit/Cl |          |
===============================================================================
|       100 |      45      214      642 |       79       64      5 | 10.000 % |
===============================================================================
restarts              : 1
conflicts             : 101            (340067 /sec)
decisions             : 111            (0.00 % random) (373737 /sec)
propagations          : 1466           (4936027 /sec)
conflict literals     : 426            (15.31 % deleted)
Memory used           : 20.00 MB
CPU time              : 0.000297 s

UNSATISFIABLE
